c FILE: i160-211

c SOURCE: From steinlib

c DESCRIPTION: Steinlib instance with 160 nodes and 812 edges.

p edge 160 812
e 1 2
e 1 5
e 1 7
e 1 10
e 1 25
e 1 27
e 1 40
e 1 56
e 1 64
e 1 80
e 1 98
e 1 99
e 1 108
e 1 150
e 2 38
e 2 75
e 2 87
e 2 130
e 2 151
e 2 157
e 3 36
e 3 53
e 3 86
e 3 125
e 4 14
e 4 31
e 4 42
e 4 47
e 4 51
e 4 64
e 4 94
e 4 126
e 4 158
e 5 14
e 5 28
e 5 30
e 5 40
e 5 67
e 5 71
e 5 81
e 5 141
e 5 147
e 5 149
e 5 157
e 5 160
e 6 13
e 6 31
e 6 40
e 6 68
e 6 85
e 6 91
e 6 151
e 6 152
e 6 155
e 6 156
e 7 9
e 7 12
e 7 30
e 7 33
e 7 47
e 7 49
e 7 72
e 7 81
e 7 87
e 7 90
e 7 94
e 7 104
e 7 114
e 7 149
e 8 21
e 8 34
e 8 38
e 8 83
e 8 84
e 8 148
e 9 14
e 9 29
e 9 41
e 9 47
e 9 103
e 9 141
e 9 158
e 10 30
e 10 47
e 10 50
e 10 59
e 10 68
e 10 105
e 10 124
e 10 130
e 10 146
e 11 14
e 11 25
e 11 44
e 11 68
e 11 86
e 11 90
e 11 93
e 11 95
e 11 97
e 11 98
e 11 104
e 11 135
e 11 149
e 12 16
e 12 56
e 12 77
e 12 81
e 12 108
e 12 117
e 12 123
e 12 134
e 12 159
e 13 14
e 13 18
e 13 37
e 13 48
e 13 57
e 13 94
e 13 122
e 13 140
e 13 141
e 14 15
e 14 33
e 14 38
e 14 55
e 14 79
e 14 86
e 14 106
e 14 110
e 14 133
e 14 136
e 15 29
e 15 35
e 15 40
e 15 43
e 15 47
e 15 51
e 15 71
e 15 104
e 15 118
e 15 144
e 15 147
e 16 21
e 16 25
e 16 54
e 16 66
e 16 80
e 16 112
e 16 113
e 16 133
e 16 140
e 16 143
e 16 150
e 17 27
e 17 45
e 17 50
e 17 63
e 17 93
e 17 102
e 17 113
e 17 122
e 17 141
e 17 142
e 17 145
e 18 40
e 18 43
e 18 79
e 18 92
e 18 95
e 18 116
e 18 117
e 18 138
e 18 152
e 19 25
e 19 48
e 19 89
e 19 101
e 19 151
e 19 159
e 20 23
e 20 26
e 20 78
e 20 84
e 20 88
e 20 97
e 20 99
e 20 120
e 20 140
e 20 143
e 20 152
e 21 24
e 21 31
e 21 35
e 21 43
e 21 51
e 21 54
e 21 60
e 21 70
e 21 80
e 21 87
e 21 99
e 22 34
e 22 38
e 22 39
e 22 41
e 22 53
e 22 67
e 22 84
e 22 105
e 22 128
e 22 138
e 22 144
e 23 26
e 23 58
e 23 86
e 23 117
e 23 126
e 23 160
e 24 61
e 24 67
e 24 72
e 24 78
e 24 121
e 24 128
e 24 152
e 25 34
e 25 49
e 25 53
e 25 65
e 25 80
e 25 83
e 25 109
e 25 130
e 25 137
e 25 151
e 25 153
e 26 33
e 26 34
e 26 51
e 26 71
e 26 77
e 26 79
e 26 83
e 26 115
e 26 120
e 26 125
e 26 128
e 26 135
e 26 151
e 27 35
e 27 83
e 27 92
e 27 146
e 27 159
e 28 31
e 28 41
e 28 60
e 28 89
e 28 90
e 28 108
e 28 149
e 28 158
e 29 40
e 29 59
e 29 69
e 29 86
e 29 109
e 29 122
e 29 126
e 29 139
e 29 147
e 30 66
e 30 116
e 30 119
e 30 155
e 31 36
e 31 64
e 31 93
e 31 112
e 31 129
e 31 136
e 31 147
e 32 90
e 32 95
e 32 98
e 32 100
e 32 124
e 32 134
e 33 35
e 33 54
e 33 65
e 33 73
e 33 84
e 33 88
e 33 96
e 33 113
e 34 42
e 34 63
e 34 82
e 34 85
e 34 108
e 34 155
e 35 58
e 35 66
e 35 69
e 35 74
e 35 101
e 35 105
e 35 129
e 35 137
e 35 146
e 35 151
e 35 155
e 35 156
e 36 47
e 36 53
e 36 56
e 36 67
e 36 72
e 36 79
e 36 85
e 36 89
e 36 108
e 37 85
e 37 104
e 37 106
e 38 75
e 38 89
e 38 109
e 38 112
e 38 117
e 38 119
e 38 121
e 38 148
e 38 153
e 38 158
e 39 40
e 39 44
e 39 73
e 39 108
e 39 129
e 39 131
e 39 132
e 39 137
e 39 140
e 40 43
e 40 66
e 40 75
e 40 90
e 40 107
e 40 140
e 41 44
e 41 48
e 41 49
e 41 78
e 41 94
e 41 118
e 41 126
e 41 151
e 41 160
e 42 61
e 42 81
e 42 82
e 42 87
e 42 124
e 43 48
e 43 64
e 43 80
e 43 89
e 43 112
e 43 119
e 44 47
e 44 54
e 44 56
e 44 58
e 44 68
e 44 89
e 44 92
e 44 106
e 44 132
e 44 159
e 45 80
e 45 93
e 45 131
e 46 49
e 46 56
e 46 73
e 46 107
e 46 129
e 46 132
e 46 144
e 47 96
e 47 116
e 47 125
e 47 131
e 47 147
e 48 57
e 48 65
e 48 68
e 48 74
e 48 89
e 48 94
e 48 95
e 48 99
e 48 113
e 48 131
e 48 142
e 48 152
e 48 154
e 49 87
e 49 94
e 49 122
e 49 127
e 49 132
e 49 140
e 49 152
e 50 69
e 50 74
e 50 82
e 50 84
e 50 120
e 50 134
e 50 145
e 50 157
e 51 68
e 51 82
e 51 87
e 51 115
e 51 117
e 51 157
e 52 73
e 52 96
e 52 120
e 52 135
e 52 143
e 52 146
e 52 149
e 52 151
e 52 155
e 53 59
e 53 97
e 53 131
e 53 158
e 54 57
e 54 68
e 54 85
e 54 91
e 54 104
e 54 134
e 54 136
e 54 143
e 54 159
e 55 57
e 55 59
e 55 60
e 55 67
e 55 124
e 55 149
e 55 151
e 56 61
e 56 75
e 56 122
e 56 140
e 56 159
e 57 58
e 57 60
e 57 87
e 57 99
e 57 111
e 58 62
e 58 69
e 58 86
e 58 98
e 58 126
e 58 144
e 59 72
e 59 76
e 59 81
e 59 85
e 59 116
e 59 124
e 59 157
e 60 107
e 60 113
e 60 114
e 60 116
e 60 143
e 60 148
e 60 158
e 61 81
e 61 90
e 61 98
e 61 105
e 61 107
e 61 131
e 61 142
e 61 149
e 62 64
e 62 93
e 62 109
e 62 119
e 62 132
e 62 139
e 63 89
e 63 105
e 63 117
e 64 72
e 64 78
e 64 84
e 64 102
e 64 110
e 64 114
e 64 122
e 64 126
e 64 139
e 64 151
e 65 85
e 65 98
e 65 102
e 65 121
e 65 144
e 65 151
e 66 82
e 66 105
e 66 109
e 66 122
e 66 135
e 66 140
e 66 144
e 67 93
e 67 105
e 67 112
e 67 118
e 67 147
e 67 157
e 68 89
e 68 113
e 68 115
e 68 121
e 68 126
e 68 128
e 68 135
e 69 112
e 69 117
e 69 129
e 69 149
e 69 155
e 70 94
e 70 98
e 70 108
e 70 111
e 70 145
e 71 129
e 71 132
e 71 149
e 71 150
e 71 152
e 71 154
e 72 75
e 72 96
e 72 100
e 72 106
e 72 120
e 72 122
e 72 129
e 72 144
e 73 98
e 73 115
e 73 123
e 73 128
e 73 149
e 73 152
e 74 82
e 74 113
e 74 130
e 74 135
e 74 138
e 75 104
e 75 122
e 75 155
e 76 78
e 76 98
e 76 99
e 76 111
e 76 120
e 76 148
e 76 153
e 77 81
e 77 105
e 77 124
e 77 126
e 77 134
e 77 149
e 77 157
e 78 85
e 78 111
e 78 112
e 78 128
e 78 131
e 78 136
e 78 140
e 78 148
e 79 87
e 79 103
e 79 115
e 79 147
e 80 91
e 80 116
e 80 150
e 81 127
e 81 128
e 81 137
e 82 91
e 82 102
e 82 110
e 82 114
e 82 119
e 82 159
e 83 98
e 83 105
e 83 110
e 83 135
e 83 158
e 84 129
e 84 137
e 84 148
e 84 149
e 85 87
e 85 93
e 85 120
e 85 131
e 86 131
e 86 146
e 86 152
e 86 160
e 87 91
e 87 105
e 87 116
e 87 158
e 88 89
e 88 112
e 88 114
e 88 127
e 88 137
e 89 90
e 89 102
e 89 117
e 89 128
e 89 133
e 90 98
e 90 114
e 90 116
e 90 122
e 90 140
e 90 142
e 91 93
e 91 96
e 91 97
e 91 108
e 91 109
e 91 116
e 91 125
e 91 129
e 91 139
e 91 158
e 92 109
e 92 116
e 92 130
e 92 140
e 92 142
e 92 146
e 92 148
e 93 145
e 94 100
e 94 105
e 94 119
e 94 122
e 94 128
e 94 137
e 94 152
e 95 97
e 95 99
e 95 113
e 95 118
e 95 137
e 96 105
e 96 120
e 96 134
e 96 145
e 97 139
e 97 156
e 98 110
e 98 114
e 98 131
e 98 137
e 98 145
e 98 153
e 99 128
e 99 159
e 100 123
e 100 130
e 100 145
e 100 154
e 101 126
e 101 136
e 102 107
e 102 119
e 102 127
e 102 148
e 103 104
e 103 110
e 103 111
e 103 121
e 103 124
e 103 130
e 104 107
e 104 111
e 104 120
e 104 146
e 105 140
e 106 139
e 106 147
e 106 150
e 107 112
e 107 127
e 107 150
e 108 128
e 108 135
e 108 147
e 110 122
e 111 150
e 111 151
e 111 159
e 112 117
e 112 127
e 112 133
e 112 145
e 112 155
e 112 158
e 113 156
e 114 133
e 114 152
e 114 157
e 115 133
e 115 146
e 115 150
e 115 156
e 116 126
e 116 129
e 116 134
e 116 159
e 117 127
e 117 132
e 117 147
e 118 119
e 118 121
e 118 123
e 118 147
e 119 139
e 119 156
e 120 126
e 120 133
e 120 157
e 121 127
e 121 159
e 122 137
e 122 149
e 123 142
e 123 146
e 123 152
e 123 153
e 124 136
e 124 140
e 124 152
e 124 153
e 125 152
e 125 158
e 126 148
e 126 158
e 127 145
e 128 142
e 129 135
e 130 150
e 131 142
e 131 146
e 131 155
e 132 158
e 133 143
e 133 147
e 133 154
e 138 140
e 139 152
e 140 143
e 142 147
e 143 151
e 143 158
e 144 160
e 145 150
e 145 153
e 145 158
e 146 153
e 146 160
e 147 158
e 149 159
e 150 151
e 150 156
e 151 153
e 151 154
e 156 158
e 157 158
e 157 159
